p cnf 1015 2320
1 0
-1015 0
-1008 0
-1001 0
-994 0
-987 0
-980 0
-973 0
-966 0
-959 0
-952 0
-945 0
-938 0
-931 0
-924 0
-917 0
-910 0
-903 0
-896 0
-889 0
-882 0
-875 0
-868 0
-861 0
-854 0
-847 0
-840 0
-833 0
-826 0
-819 0
-812 0
-805 0
-798 0
-787 0
-788 0
-789 0
-790 0
-791 0
-783 0
-784 0
2 0
3 0
-1014 0
-18 0
35 0
-52 0
69 0
70 0
71 0
72 0
-86 0
-87 0
-88 0
103 0
-120 0
-776 0
-777 0
-137 0
-138 0
-1007 0
154 0
155 0
156 0
-171 0
-172 0
188 0
189 0
190 0
191 0
192 0
-205 0
-222 0
-223 0
-224 0
239 0
-769 0
-770 0
-256 0
-273 0
-1000 0
-290 0
307 0
324 0
-341 0
358 0
359 0
360 0
375 0
376 0
377 0
392 0
-409 0
426 0
427 0
-762 0
-763 0
443 0
-993 0
460 0
461 0
477 0
478 0
-494 0
511 0
512 0
528 0
529 0
530 0
-561 0
-562 0
-563 0
-564 0
-565 0
-566 0
-567 0
-793 0
-755 0
-756 0
-794 0
-986 0
-795 0
-796 0
-797 0
-574 0
-581 0
-588 0
-748 0
-749 0
-979 0
-595 0
-602 0
-609 0
-616 0
-623 0
-630 0
-637 0
-741 0
-742 0
-972 0
-644 0
-651 0
-658 0
-665 0
-672 0
-679 0
-686 0
-734 0
-735 0
-965 0
-693 0
-700 0
-707 0
-714 0
-721 0
-728 0
-727 0
-782 0
-1013 0
-775 0
-958 0
-1006 0
-768 0
-999 0
-761 0
-992 0
-569 0
-754 0
-570 0
-571 0
-985 0
-720 0
-572 0
-573 0
-801 0
-951 0
-802 0
-803 0
-804 0
-747 0
-978 0
-740 0
-971 0
-733 0
-713 0
-964 0
-706 0
-944 0
-726 0
-781 0
-1012 0
-774 0
-957 0
-1005 0
-767 0
-998 0
-760 0
-991 0
-753 0
-984 0
-719 0
-937 0
-577 0
-578 0
-950 0
-579 0
-580 0
-809 0
-810 0
-811 0
-746 0
-699 0
-977 0
-739 0
-930 0
-970 0
-732 0
-712 0
-692 0
-943 0
-780 0
-1011 0
-725 0
-773 0
-1004 0
-956 0
-766 0
-997 0
-759 0
-923 0
-990 0
-752 0
-705 0
-983 0
-718 0
-936 0
-949 0
-585 0
-586 0
-587 0
-685 0
-817 0
-818 0
-916 0
-745 0
-963 0
-976 0
-698 0
-738 0
-969 0
-678 0
-731 0
-691 0
-909 0
-711 0
-962 0
-922 0
-704 0
-935 0
-593 0
-929 0
-684 0
-594 0
-671 0
-825 0
-915 0
-902 0
-697 0
-664 0
-928 0
-942 0
-724 0
-677 0
-955 0
-690 0
-908 0
-921 0
-717 0
-948 0
-683 0
-895 0
-601 0
-670 0
-914 0
-901 0
-657 0
-710 0
-941 0
-676 0
-907 0
-703 0
-663 0
-888 0
-934 0
-894 0
-669 0
-650 0
-900 0
-696 0
-689 0
-656 0
-920 0
-887 0
-662 0
-881 0
-682 0
-893 0
-913 0
-643 0
-927 0
-675 0
-668 0
-906 0
-655 0
-649 0
-880 0
-661 0
-886 0
-874 0
-636 0
-899 0
-892 0
-654 0
-885 0
-648 0
-879 0
-642 0
-647 0
-873 0
-641 0
-867 0
-629 0
-872 0
-878 0
-640 0
-635 0
-622 0
-860 0
-628 0
-866 0
-871 0
-615 0
-634 0
-853 0
-621 0
-859 0
-865 0
-608 0
-846 0
-614 0
-852 0
-627 0
-633 0
-858 0
-832 0
-839 0
-607 0
-864 0
-620 0
-845 0
-613 0
-851 0
-626 0
-600 0
-838 0
-606 0
-844 0
-619 0
-857 0
-850 0
-824 0
-831 0
-599 0
-612 0
-837 0
-605 0
-843 0
-592 0
-830 0
-598 0
-836 0
-816 0
-823 0
-591 0
-829 0
-584 0
-822 0
-808 0
-815 0
-883 -652 884 0
912 -681 688 0
-911 -680 -687 0
652 -884 0
883 -884 0
547 4 0
-667 674 0
-695 702 0
-547 -4 0
5 -4 0
-5 4 0
6 -5 0
-6 5 0
550 -6 7 0
-550 6 7 0
550 6 -7 0
-550 -6 -7 0
8 -7 0
-8 7 0
9 -8 0
-9 8 0
553 -9 10 0
-553 9 10 0
553 9 -10 0
-553 -9 -10 0
554 -10 11 0
-554 10 11 0
554 10 -11 0
-554 -10 -11 0
12 -11 0
-12 11 0
13 -12 0
-13 12 0
14 -13 0
-14 13 0
558 -14 15 0
-558 14 15 0
558 14 -15 0
-558 -14 -15 0
16 -15 0
-16 15 0
560 -16 17 0
-560 16 17 0
560 16 -17 0
-560 -16 -17 0
659 -891 0
425 -960 0
-545 19 0
545 -19 0
-425 960 0
546 -19 20 0
-546 19 20 0
546 19 -20 0
-546 -19 -20 0
21 -20 0
-21 20 0
548 -21 22 0
-548 21 22 0
548 21 -22 0
-548 -21 -22 0
549 -22 23 0
-549 22 23 0
549 22 -23 0
-549 -22 -23 0
550 -23 24 0
-550 23 24 0
550 23 -24 0
-550 -23 -24 0
551 -24 25 0
-551 24 25 0
551 24 -25 0
-551 -24 -25 0
26 -25 0
-26 25 0
27 -26 0
-27 26 0
554 -27 28 0
-554 27 28 0
554 27 -28 0
-554 -27 -28 0
555 -28 29 0
-555 28 29 0
555 28 -29 0
-555 -28 -29 0
30 -29 0
-30 29 0
557 -30 31 0
-557 30 31 0
557 30 -31 0
-557 -30 -31 0
32 -31 0
-32 31 0
559 -32 33 0
-559 32 33 0
559 32 -33 0
-559 -32 -33 0
560 -33 34 0
-560 33 34 0
560 33 -34 0
-560 -33 -34 0
-926 -695 0
545 36 0
187 -862 0
-849 -618 0
-545 -36 0
37 -36 0
-37 36 0
38 -37 0
-38 37 0
39 -38 0
-39 38 0
40 -39 0
-40 39 0
550 -40 41 0
-550 40 41 0
550 40 -41 0
-550 -40 -41 0
42 -41 0
-42 41 0
43 -42 0
-43 42 0
553 -43 44 0
-553 43 44 0
553 43 -44 0
-553 -43 -44 0
45 -44 0
-45 44 0
555 -45 46 0
-555 45 46 0
555 45 -46 0
-555 -45 -46 0
556 -46 47 0
-556 46 47 0
556 46 -47 0
-556 -46 -47 0
557 -47 48 0
-557 47 48 0
557 47 -48 0
-557 -47 -48 0
49 -48 0
-49 48 0
50 -49 0
-50 49 0
51 -50 0
-51 50 0
-884 -653 -660 0
890 -891 0
-545 53 0
545 -53 0
-891 -660 -667 0
54 -53 0
-54 53 0
55 -54 0
-55 54 0
56 -55 0
-56 55 0
57 -56 0
-57 56 0
550 -57 58 0
-550 57 58 0
550 57 -58 0
-550 -57 -58 0
551 -58 59 0
-551 58 59 0
551 58 -59 0
-551 -58 -59 0
552 -59 60 0
-552 59 60 0
552 59 -60 0
-552 -59 -60 0
553 -60 61 0
-553 60 61 0
553 60 -61 0
-553 -60 -61 0
62 -61 0
-62 61 0
555 -62 63 0
-555 62 63 0
555 62 -63 0
-555 -62 -63 0
556 -63 64 0
-556 63 64 0
556 63 -64 0
-556 -63 -64 0
65 -64 0
-65 64 0
66 -65 0
-66 65 0
559 -66 67 0
-559 66 67 0
559 66 -67 0
-559 -66 -67 0
560 -67 68 0
-560 67 68 0
560 67 -68 0
-560 -67 -68 0
-779 786 0
-1010 -779 0
911 680 -687 0
-911 680 687 0
884 653 -660 0
-187 862 0
-778 785 1010 0
548 73 0
-1009 -778 1010 0
778 -1010 0
-548 -73 0
549 -73 74 0
-549 73 74 0
549 73 -74 0
-549 -73 -74 0
550 -74 75 0
-550 74 75 0
550 74 -75 0
-550 -74 -75 0
551 -75 76 0
-551 75 76 0
551 75 -76 0
-551 -75 -76 0
552 -76 77 0
-552 76 77 0
552 76 -77 0
-552 -76 -77 0
78 -77 0
-78 77 0
554 -78 79 0
-554 78 79 0
554 78 -79 0
-554 -78 -79 0
555 -79 80 0
-555 79 80 0
555 79 -80 0
-555 -79 -80 0
81 -80 0
-81 80 0
557 -81 82 0
-557 81 82 0
557 81 -82 0
-557 -81 -82 0
558 -82 83 0
-558 82 83 0
558 82 -83 0
-558 -82 -83 0
559 -83 84 0
-559 83 84 0
559 83 -84 0
-559 -83 -84 0
85 -84 0
-85 84 0
1009 -1010 0
-1010 -779 -786 0
1010 779 -786 0
-1010 779 786 0
1010 -779 786 0
-1009 -778 -785 0
-547 89 0
547 -89 0
1009 778 -785 0
548 -89 90 0
-548 89 90 0
548 89 -90 0
-548 -89 -90 0
549 -90 91 0
-549 90 91 0
549 90 -91 0
-549 -90 -91 0
550 -91 92 0
-550 91 92 0
550 91 -92 0
-550 -91 -92 0
93 -92 0
-93 92 0
552 -93 94 0
-552 93 94 0
552 93 -94 0
-552 -93 -94 0
95 -94 0
-95 94 0
96 -95 0
-96 95 0
555 -96 97 0
-555 96 97 0
555 96 -97 0
-555 -96 -97 0
98 -97 0
-98 97 0
557 -98 99 0
-557 98 99 0
557 98 -99 0
-557 -98 -99 0
558 -99 100 0
-558 99 100 0
558 99 -100 0
-558 -99 -100 0
101 -100 0
-101 100 0
560 -101 102 0
-560 101 102 0
560 101 -102 0
-560 -101 -102 0
-1009 778 785 0
545 104 0
1009 -778 785 0
-544 1009 0
-545 -104 0
546 -104 105 0
-546 104 105 0
546 104 -105 0
-546 -104 -105 0
547 -105 106 0
-547 105 106 0
547 105 -106 0
-547 -105 -106 0
548 -106 107 0
-548 106 107 0
548 106 -107 0
-548 -106 -107 0
549 -107 108 0
-549 107 108 0
549 107 -108 0
-549 -107 -108 0
109 -108 0
-109 108 0
551 -109 110 0
-551 109 110 0
551 109 -110 0
-551 -109 -110 0
111 -110 0
-111 110 0
553 -111 112 0
-553 111 112 0
553 111 -112 0
-553 -111 -112 0
554 -112 113 0
-554 112 113 0
554 112 -113 0
-554 -112 -113 0
555 -113 114 0
-555 113 114 0
555 113 -114 0
-555 -113 -114 0
115 -114 0
-115 114 0
116 -115 0
-116 115 0
117 -116 0
-117 116 0
559 -117 118 0
-559 117 118 0
559 117 -118 0
-559 -117 -118 0
560 -118 119 0
-560 118 119 0
560 118 -119 0
-560 -118 -119 0
544 -1009 0
946 715 -722 0
-545 121 0
545 -121 0
-694 701 926 0
122 -121 0
-122 121 0
123 -122 0
-123 122 0
548 -123 124 0
-548 123 124 0
548 123 -124 0
-548 -123 -124 0
125 -124 0
-125 124 0
550 -125 126 0
-550 125 126 0
550 125 -126 0
-550 -125 -126 0
127 -126 0
-127 126 0
552 -127 128 0
-552 127 128 0
552 127 -128 0
-552 -127 -128 0
553 -128 129 0
-553 128 129 0
553 128 -129 0
-553 -128 -129 0
554 -129 130 0
-554 129 130 0
554 129 -130 0
-554 -129 -130 0
555 -130 131 0
-555 130 131 0
555 130 -131 0
-555 -130 -131 0
132 -131 0
-132 131 0
557 -132 133 0
-557 132 133 0
557 132 -133 0
-557 -132 -133 0
558 -133 134 0
-558 133 134 0
558 133 -134 0
-558 -133 -134 0
135 -134 0
-135 134 0
560 -135 136 0
-560 135 136 0
560 135 -136 0
-560 -135 -136 0
-925 -694 926 0
694 -926 0
891 660 -667 0
911 -680 687 0
-546 139 0
546 -139 0
-306 911 0
140 -139 0
-140 139 0
548 -140 141 0
-548 140 141 0
548 140 -141 0
-548 -140 -141 0
549 -141 142 0
-549 141 142 0
549 141 -142 0
-549 -141 -142 0
143 -142 0
-143 142 0
144 -143 0
-144 143 0
552 -144 145 0
-552 144 145 0
552 144 -145 0
-552 -144 -145 0
146 -145 0
-146 145 0
147 -146 0
-147 146 0
555 -147 148 0
-555 147 148 0
555 147 -148 0
-555 -147 -148 0
556 -148 149 0
-556 148 149 0
556 148 -149 0
-556 -148 -149 0
150 -149 0
-150 149 0
151 -150 0
-151 150 0
559 -151 152 0
-559 151 152 0
559 151 -152 0
-559 -151 -152 0
560 -152 153 0
-560 152 153 0
560 152 -153 0
-560 -152 -153 0
-898 -667 0
-946 -715 -722 0
-709 716 0
-940 -709 0
-884 653 660 0
547 157 0
925 -926 0
-926 -695 -702 0
-547 -157 0
158 -157 0
-158 157 0
549 -158 159 0
-549 158 159 0
549 158 -159 0
-549 -158 -159 0
550 -159 160 0
-550 159 160 0
550 159 -160 0
-550 -159 -160 0
161 -160 0
-161 160 0
162 -161 0
-162 161 0
163 -162 0
-163 162 0
554 -163 164 0
-554 163 164 0
554 163 -164 0
-554 -163 -164 0
555 -164 165 0
-555 164 165 0
555 164 -165 0
-555 -164 -165 0
556 -165 166 0
-556 165 166 0
556 165 -166 0
-556 -165 -166 0
557 -166 167 0
-557 166 167 0
557 166 -167 0
-557 -166 -167 0
558 -167 168 0
-558 167 168 0
558 167 -168 0
-558 -167 -168 0
169 -168 0
-169 168 0
560 -169 170 0
-560 169 170 0
560 169 -170 0
-560 -169 -170 0
926 695 -702 0
-926 695 702 0
884 -653 660 0
-891 660 667 0
-546 173 0
546 -173 0
891 -660 667 0
174 -173 0
-174 173 0
548 -174 175 0
-548 174 175 0
548 174 -175 0
-548 -174 -175 0
549 -175 176 0
-549 175 176 0
549 175 -176 0
-549 -175 -176 0
177 -176 0
-177 176 0
551 -177 178 0
-551 177 178 0
551 177 -178 0
-551 -177 -178 0
179 -178 0
-179 178 0
553 -179 180 0
-553 179 180 0
553 179 -180 0
-553 -179 -180 0
554 -180 181 0
-554 180 181 0
554 180 -181 0
-554 -180 -181 0
555 -181 182 0
-555 181 182 0
555 181 -182 0
-555 -181 -182 0
556 -182 183 0
-556 182 183 0
556 182 -183 0
-556 -182 -183 0
184 -183 0
-184 183 0
185 -184 0
-185 184 0
559 -185 186 0
-559 185 186 0
559 185 -186 0
-559 -185 -186 0
560 -186 187 0
-560 186 187 0
560 186 -187 0
-560 -186 -187 0
-890 -659 -666 0
-772 779 0
-1003 -772 0
306 -911 0
-912 681 688 0
926 -695 702 0
-925 -694 -701 0
925 694 -701 0
-925 694 701 0
549 193 0
-771 778 1003 0
-1002 -771 1003 0
-549 -193 0
550 -193 194 0
-550 193 194 0
550 193 -194 0
-550 -193 -194 0
551 -194 195 0
-551 194 195 0
551 194 -195 0
-551 -194 -195 0
552 -195 196 0
-552 195 196 0
552 195 -196 0
-552 -195 -196 0
197 -196 0
-197 196 0
554 -197 198 0
-554 197 198 0
554 197 -198 0
-554 -197 -198 0
555 -198 199 0
-555 198 199 0
555 198 -199 0
-555 -198 -199 0
556 -199 200 0
-556 199 200 0
556 199 -200 0
-556 -199 -200 0
201 -200 0
-201 200 0
558 -201 202 0
-558 201 202 0
558 201 -202 0
-558 -201 -202 0
203 -202 0
-203 202 0
560 -203 204 0
-560 203 204 0
560 203 -204 0
-560 -203 -204 0
771 -1003 0
1002 -1003 0
-545 206 0
545 -206 0
-1003 -772 -779 0
207 -206 0
-207 206 0
547 -207 208 0
-547 207 208 0
547 207 -208 0
-547 -207 -208 0
209 -208 0
-209 208 0
210 -209 0
-210 209 0
211 -210 0
-211 210 0
212 -211 0
-212 211 0
552 -212 213 0
-552 212 213 0
552 212 -213 0
-552 -212 -213 0
553 -213 214 0
-553 213 214 0
553 213 -214 0
-553 -213 -214 0
215 -214 0
-215 214 0
216 -215 0
-216 215 0
556 -216 217 0
-556 216 217 0
556 216 -217 0
-556 -216 -217 0
557 -217 218 0
-557 217 218 0
557 217 -218 0
-557 -217 -218 0
558 -218 219 0
-558 218 219 0
558 218 -219 0
-558 -218 -219 0
559 -219 220 0
-559 219 220 0
559 219 -220 0
-559 -219 -220 0
221 -220 0
-221 220 0
1003 772 -779 0
-1003 772 779 0
1003 -772 779 0
-1002 -771 -778 0
1002 771 -778 0
-1002 771 778 0
-547 225 0
547 -225 0
1002 -771 778 0
548 -225 226 0
-548 225 226 0
548 225 -226 0
-548 -225 -226 0
549 -226 227 0
-549 226 227 0
549 226 -227 0
-549 -226 -227 0
228 -227 0
-228 227 0
551 -228 229 0
-551 228 229 0
551 228 -229 0
-551 -228 -229 0
552 -229 230 0
-552 229 230 0
552 229 -230 0
-552 -229 -230 0
553 -230 231 0
-553 230 231 0
553 230 -231 0
-553 -230 -231 0
232 -231 0
-232 231 0
555 -232 233 0
-555 232 233 0
555 232 -233 0
-555 -232 -233 0
556 -233 234 0
-556 233 234 0
556 233 -234 0
-556 -233 -234 0
557 -234 235 0
-557 234 235 0
557 234 -235 0
-557 -234 -235 0
558 -235 236 0
-558 235 236 0
558 235 -236 0
-558 -235 -236 0
559 -236 237 0
-559 236 237 0
559 236 -237 0
-559 -236 -237 0
238 -237 0
-238 237 0
-527 1002 0
545 240 0
527 -1002 0
855 -624 631 0
-545 -240 0
241 -240 0
-241 240 0
242 -241 0
-242 241 0
243 -242 0
-243 242 0
549 -243 244 0
-549 243 244 0
549 243 -244 0
-549 -243 -244 0
550 -244 245 0
-550 244 245 0
550 244 -245 0
-550 -244 -245 0
246 -245 0
-246 245 0
247 -246 0
-247 246 0
553 -247 248 0
-553 247 248 0
553 247 -248 0
-553 -247 -248 0
554 -248 249 0
-554 248 249 0
554 248 -249 0
-554 -248 -249 0
555 -249 250 0
-555 249 250 0
555 249 -250 0
-555 -249 -250 0
556 -250 251 0
-556 250 251 0
556 250 -251 0
-556 -250 -251 0
252 -251 0
-252 251 0
558 -252 253 0
-558 252 253 0
558 252 -253 0
-558 -252 -253 0
254 -253 0
-254 253 0
255 -254 0
-255 254 0
947 -716 723 0
729 -961 0
-545 257 0
545 -257 0
960 -961 0
258 -257 0
-258 257 0
547 -258 259 0
-547 258 259 0
547 258 -259 0
-547 -258 -259 0
548 -259 260 0
-548 259 260 0
548 259 -260 0
-548 -259 -260 0
261 -260 0
-261 260 0
262 -261 0
-262 261 0
551 -262 263 0
-551 262 263 0
551 262 -263 0
-551 -262 -263 0
264 -263 0
-264 263 0
553 -264 265 0
-553 264 265 0
553 264 -265 0
-553 -264 -265 0
266 -265 0
-266 265 0
555 -266 267 0
-555 266 267 0
555 266 -267 0
-555 -266 -267 0
556 -267 268 0
-556 267 268 0
556 267 -268 0
-556 -267 -268 0
557 -268 269 0
-557 268 269 0
557 268 -269 0
-557 -268 -269 0
270 -269 0
-270 269 0
559 -270 271 0
-559 270 271 0
559 270 -271 0
-559 -270 -271 0
272 -271 0
-272 271 0
890 659 -666 0
-708 715 940 0
-545 274 0
545 -274 0
-939 -708 940 0
275 -274 0
-275 274 0
547 -275 276 0
-547 275 276 0
547 275 -276 0
-547 -275 -276 0
548 -276 277 0
-548 276 277 0
548 276 -277 0
-548 -276 -277 0
549 -277 278 0
-549 277 278 0
549 277 -278 0
-549 -277 -278 0
279 -278 0
-279 278 0
280 -279 0
-280 279 0
281 -280 0
-281 280 0
553 -281 282 0
-553 281 282 0
553 281 -282 0
-553 -281 -282 0
283 -282 0
-283 282 0
284 -283 0
-284 283 0
556 -284 285 0
-556 284 285 0
556 284 -285 0
-556 -284 -285 0
286 -285 0
-286 285 0
558 -286 287 0
-558 286 287 0
558 286 -287 0
-558 -286 -287 0
288 -287 0
-288 287 0
289 -288 0
-289 288 0
708 -940 0
925 -694 701 0
-545 291 0
545 -291 0
-340 925 0
292 -291 0
-292 291 0
293 -292 0
-293 292 0
548 -293 294 0
-548 293 294 0
548 293 -294 0
-548 -293 -294 0
295 -294 0
-295 294 0
550 -295 296 0
-550 295 296 0
550 295 -296 0
-550 -295 -296 0
297 -296 0
-297 296 0
298 -297 0
-298 297 0
299 -298 0
-299 298 0
554 -299 300 0
-554 299 300 0
554 299 -300 0
-554 -299 -300 0
301 -300 0
-301 300 0
556 -301 302 0
-556 301 302 0
556 301 -302 0
-556 -301 -302 0
557 -302 303 0
-557 302 303 0
557 302 -303 0
-557 -302 -303 0
304 -303 0
-304 303 0
305 -304 0
-305 304 0
560 -305 306 0
-560 305 306 0
560 305 -306 0
-560 -305 -306 0
340 -925 0
545 308 0
-170 855 0
-961 -730 -737 0
-545 -308 0
309 -308 0
-309 308 0
310 -309 0
-310 309 0
311 -310 0
-311 310 0
549 -311 312 0
-549 311 312 0
549 311 -312 0
-549 -311 -312 0
550 -312 313 0
-550 312 313 0
550 312 -313 0
-550 -312 -313 0
314 -313 0
-314 313 0
315 -314 0
-315 314 0
553 -315 316 0
-553 315 316 0
553 315 -316 0
-553 -315 -316 0
317 -316 0
-317 316 0
555 -317 318 0
-555 317 318 0
555 317 -318 0
-555 -317 -318 0
556 -318 319 0
-556 318 319 0
556 318 -319 0
-556 -318 -319 0
557 -319 320 0
-557 319 320 0
557 319 -320 0
-557 -319 -320 0
321 -320 0
-321 320 0
559 -321 322 0
-559 321 322 0
559 321 -322 0
-559 -321 -322 0
560 -322 323 0
-560 322 323 0
560 322 -323 0
-560 -322 -323 0
961 730 -737 0
545 325 0
170 -855 0
442 -967 0
-545 -325 0
546 -325 326 0
-546 325 326 0
546 325 -326 0
-546 -325 -326 0
547 -326 327 0
-547 326 327 0
547 326 -327 0
-547 -326 -327 0
328 -327 0
-328 327 0
329 -328 0
-329 328 0
550 -329 330 0
-550 329 330 0
550 329 -330 0
-550 -329 -330 0
331 -330 0
-331 330 0
332 -331 0
-332 331 0
333 -332 0
-333 332 0
554 -333 334 0
-554 333 334 0
554 333 -334 0
-554 -333 -334 0
555 -334 335 0
-555 334 335 0
555 334 -335 0
-555 -334 -335 0
336 -335 0
-336 335 0
337 -336 0
-337 336 0
558 -337 338 0
-558 337 338 0
558 337 -338 0
-558 -337 -338 0
559 -338 339 0
-559 338 339 0
559 338 -339 0
-559 -338 -339 0
340 -339 0
-340 339 0
939 -940 0
-940 -709 -716 0
-545 342 0
545 -342 0
940 709 -716 0
546 -342 343 0
-546 342 343 0
546 342 -343 0
-546 -342 -343 0
344 -343 0
-344 343 0
548 -344 345 0
-548 344 345 0
548 344 -345 0
-548 -344 -345 0
549 -345 346 0
-549 345 346 0
549 345 -346 0
-549 -345 -346 0
347 -346 0
-347 346 0
348 -347 0
-348 347 0
349 -348 0
-349 348 0
350 -349 0
-350 349 0
554 -350 351 0
-554 350 351 0
554 350 -351 0
-554 -350 -351 0
555 -351 352 0
-555 351 352 0
555 351 -352 0
-555 -351 -352 0
556 -352 353 0
-556 352 353 0
556 352 -353 0
-556 -352 -353 0
557 -353 354 0
-557 353 354 0
557 353 -354 0
-557 -353 -354 0
558 -354 355 0
-558 354 355 0
558 354 -355 0
-558 -354 -355 0
356 -355 0
-356 355 0
357 -356 0
-357 356 0
-940 709 716 0
-765 772 0
-996 -765 0
-442 967 0
862 -863 0
547 361 0
-666 673 898 0
-897 -666 898 0
-547 -361 0
362 -361 0
-362 361 0
363 -362 0
-363 362 0
364 -363 0
-364 363 0
365 -364 0
-365 364 0
366 -365 0
-366 365 0
553 -366 367 0
-553 366 367 0
553 366 -367 0
-553 -366 -367 0
554 -367 368 0
-554 367 368 0
554 367 -368 0
-554 -367 -368 0
555 -368 369 0
-555 368 369 0
555 368 -369 0
-555 -368 -369 0
370 -369 0
-370 369 0
557 -370 371 0
-557 370 371 0
557 370 -371 0
-557 -370 -371 0
372 -371 0
-372 371 0
559 -372 373 0
-559 372 373 0
559 372 -373 0
-559 -372 -373 0
560 -373 374 0
-560 373 374 0
560 373 -374 0
-560 -373 -374 0
666 -898 0
897 -898 0
-764 771 996 0
-995 -764 996 0
764 -996 0
547 378 0
995 -996 0
-996 -765 -772 0
-547 -378 0
379 -378 0
-379 378 0
549 -379 380 0
-549 379 380 0
549 379 -380 0
-549 -379 -380 0
550 -380 381 0
-550 380 381 0
550 380 -381 0
-550 -380 -381 0
382 -381 0
-382 381 0
552 -382 383 0
-552 382 383 0
552 382 -383 0
-552 -382 -383 0
384 -383 0
-384 383 0
385 -384 0
-385 384 0
555 -385 386 0
-555 385 386 0
555 385 -386 0
-555 -385 -386 0
556 -386 387 0
-556 386 387 0
556 386 -387 0
-556 -386 -387 0
388 -387 0
-388 387 0
389 -388 0
-389 388 0
559 -389 390 0
-559 389 390 0
559 389 -390 0
-559 -389 -390 0
560 -390 391 0
-560 390 391 0
560 390 -391 0
-560 -390 -391 0
996 765 -772 0
545 393 0
-996 765 772 0
996 -765 772 0
-545 -393 0
546 -393 394 0
-546 393 394 0
546 393 -394 0
-546 -393 -394 0
395 -394 0
-395 394 0
548 -395 396 0
-548 395 396 0
548 395 -396 0
-548 -395 -396 0
397 -396 0
-397 396 0
398 -397 0
-398 397 0
399 -398 0
-399 398 0
400 -399 0
-400 399 0
401 -400 0
-401 400 0
554 -401 402 0
-554 401 402 0
554 401 -402 0
-554 -401 -402 0
555 -402 403 0
-555 402 403 0
555 402 -403 0
-555 -402 -403 0
556 -403 404 0
-556 403 404 0
556 403 -404 0
-556 -403 -404 0
557 -404 405 0
-557 404 405 0
557 404 -405 0
-557 -404 -405 0
406 -405 0
-406 405 0
407 -406 0
-407 406 0
560 -407 408 0
-560 407 408 0
560 407 -408 0
-560 -407 -408 0
-995 -764 -771 0
995 764 -771 0
-545 410 0
545 -410 0
-995 764 771 0
411 -410 0
-411 410 0
547 -411 412 0
-547 411 412 0
547 411 -412 0
-547 -411 -412 0
548 -412 413 0
-548 412 413 0
548 412 -413 0
-548 -412 -413 0
414 -413 0
-414 413 0
550 -414 415 0
-550 414 415 0
550 414 -415 0
-550 -414 -415 0
551 -415 416 0
-551 415 416 0
551 415 -416 0
-551 -415 -416 0
417 -416 0
-417 416 0
553 -417 418 0
-553 417 418 0
553 417 -418 0
-553 -417 -418 0
419 -418 0
-419 418 0
420 -419 0
-420 419 0
556 -420 421 0
-556 420 421 0
556 420 -421 0
-556 -420 -421 0
557 -421 422 0
-557 421 422 0
557 421 -422 0
-557 -421 -422 0
423 -422 0
-423 422 0
424 -423 0
-424 423 0
425 -424 0
-425 424 0
995 -764 771 0
-510 995 0
510 -995 0
546 428 0
-723 730 0
-954 -723 0
-546 -428 0
547 -428 429 0
-547 428 429 0
547 428 -429 0
-547 -428 -429 0
430 -429 0
-430 429 0
431 -430 0
-431 430 0
550 -431 432 0
-550 431 432 0
550 431 -432 0
-550 -431 -432 0
551 -432 433 0
-551 432 433 0
551 432 -433 0
-551 -432 -433 0
434 -433 0
-434 433 0
435 -434 0
-435 434 0
436 -435 0
-436 435 0
437 -436 0
-437 436 0
438 -437 0
-438 437 0
439 -438 0
-439 438 0
440 -439 0
-440 439 0
559 -440 441 0
-559 440 441 0
559 440 -441 0
-559 -440 -441 0
560 -441 442 0
-560 441 442 0
560 441 -442 0
-560 -441 -442 0
-890 659 666 0
545 444 0
890 -659 666 0
940 -709 716 0
-545 -444 0
445 -444 0
-445 444 0
446 -445 0
-446 445 0
447 -446 0
-447 446 0
549 -447 448 0
-549 447 448 0
549 447 -448 0
-549 -447 -448 0
550 -448 449 0
-550 448 449 0
550 448 -449 0
-550 -448 -449 0
450 -449 0
-450 449 0
552 -450 451 0
-552 450 451 0
552 450 -451 0
-552 -450 -451 0
452 -451 0
-452 451 0
453 -452 0
-453 452 0
555 -453 454 0
-555 453 454 0
555 453 -454 0
-555 -453 -454 0
556 -454 455 0
-556 454 455 0
556 454 -455 0
-556 -454 -455 0
456 -455 0
-456 455 0
457 -456 0
-457 456 0
458 -457 0
-458 457 0
459 -458 0
-459 458 0
-939 -708 -715 0
939 708 -715 0
-939 708 715 0
546 462 0
-898 -667 -674 0
912 681 -688 0
-546 -462 0
547 -462 463 0
-547 462 463 0
547 462 -463 0
-547 -462 -463 0
548 -463 464 0
-548 463 464 0
548 463 -464 0
-548 -463 -464 0
549 -464 465 0
-549 464 465 0
549 464 -465 0
-549 -464 -465 0
550 -465 466 0
-550 465 466 0
550 465 -466 0
-550 -465 -466 0
467 -466 0
-467 466 0
552 -467 468 0
-552 467 468 0
552 467 -468 0
-552 -467 -468 0
553 -468 469 0
-553 468 469 0
553 468 -469 0
-553 -468 -469 0
554 -469 470 0
-554 469 470 0
554 469 -470 0
-554 -469 -470 0
555 -470 471 0
-555 470 471 0
555 470 -471 0
-555 -470 -471 0
472 -471 0
-472 471 0
473 -472 0
-473 472 0
558 -473 474 0
-558 473 474 0
558 473 -474 0
-558 -473 -474 0
475 -474 0
-475 474 0
476 -475 0
-476 475 0
898 667 -674 0
-898 667 674 0
-912 -681 -688 0
546 479 0
-255 890 0
-947 716 723 0
-546 -479 0
480 -479 0
-480 479 0
548 -480 481 0
-548 480 481 0
548 480 -481 0
-548 -480 -481 0
482 -481 0
-482 481 0
483 -482 0
-483 482 0
484 -483 0
-484 483 0
552 -484 485 0
-552 484 485 0
552 484 -485 0
-552 -484 -485 0
553 -485 486 0
-553 485 486 0
553 485 -486 0
-553 -485 -486 0
554 -486 487 0
-554 486 487 0
554 486 -487 0
-554 -486 -487 0
488 -487 0
-488 487 0
556 -488 489 0
-556 488 489 0
556 488 -489 0
-556 -488 -489 0
557 -489 490 0
-557 489 490 0
557 489 -490 0
-557 -489 -490 0
491 -490 0
-491 490 0
559 -491 492 0
-559 491 492 0
559 491 -492 0
-559 -491 -492 0
560 -492 493 0
-560 492 493 0
560 492 -493 0
-560 -492 -493 0
-883 -652 -659 0
939 -708 715 0
-545 495 0
545 -495 0
-374 939 0
496 -495 0
-496 495 0
547 -496 497 0
-547 496 497 0
547 496 -497 0
-547 -496 -497 0
498 -497 0
-498 497 0
549 -498 499 0
-549 498 499 0
549 498 -499 0
-549 -498 -499 0
550 -499 500 0
-550 499 500 0
550 499 -500 0
-550 -499 -500 0
501 -500 0
-501 500 0
502 -501 0
-502 501 0
503 -502 0
-503 502 0
504 -503 0
-504 503 0
505 -504 0
-505 504 0
506 -505 0
-506 505 0
507 -506 0
-507 506 0
508 -507 0
-508 507 0
509 -508 0
-509 508 0
510 -509 0
-510 509 0
374 -939 0
255 -890 0
-758 765 0
546 513 0
-989 -758 0
-890 -659 891 0
-546 -513 0
547 -513 514 0
-547 513 514 0
547 513 -514 0
-547 -513 -514 0
515 -514 0
-515 514 0
549 -515 516 0
-549 515 516 0
549 515 -516 0
-549 -515 -516 0
550 -516 517 0
-550 516 517 0
550 516 -517 0
-550 -516 -517 0
551 -517 518 0
-551 517 518 0
551 517 -518 0
-551 -517 -518 0
552 -518 519 0
-552 518 519 0
552 518 -519 0
-552 -518 -519 0
520 -519 0
-520 519 0
521 -520 0
-521 520 0
555 -521 522 0
-555 521 522 0
555 521 -522 0
-555 -521 -522 0
523 -522 0
-523 522 0
557 -523 524 0
-557 523 524 0
557 523 -524 0
-557 -523 -524 0
525 -524 0
-525 524 0
559 -525 526 0
-559 525 526 0
559 525 -526 0
-559 -525 -526 0
527 -526 0
-527 526 0
911 -912 0
898 -667 674 0
-897 -666 -673 0
897 666 -673 0
-897 666 673 0
547 531 0
-757 764 989 0
-988 -757 989 0
-547 -531 0
532 -531 0
-532 531 0
533 -532 0
-533 532 0
550 -533 534 0
-550 533 534 0
550 533 -534 0
-550 -533 -534 0
535 -534 0
-535 534 0
552 -535 536 0
-552 535 536 0
552 535 -536 0
-552 -535 -536 0
553 -536 537 0
-553 536 537 0
553 536 -537 0
-553 -536 -537 0
554 -537 538 0
-554 537 538 0
554 537 -538 0
-554 -537 -538 0
539 -538 0
-539 538 0
540 -539 0
-540 539 0
541 -540 0
-541 540 0
542 -541 0
-542 541 0
543 -542 0
-543 542 0
560 -543 544 0
-560 543 544 0
560 543 -544 0
-560 -543 -544 0
757 -989 0
988 -989 0
-989 -758 -765 0
989 758 -765 0
-989 758 765 0
989 -758 765 0
-988 -757 -764 0
17 -792 0
-17 792 0
988 757 -764 0
-792 568 0
792 -568 0
-988 757 764 0
988 -757 764 0
-722 729 954 0
-953 -722 954 0
-493 988 0
722 -954 0
493 -988 0
953 -954 0
-954 -723 -730 0
954 723 -730 0
-954 723 730 0
954 -723 730 0
-953 -722 -729 0
897 -666 673 0
-272 897 0
272 -897 0
680 -912 0
953 722 -729 0
-953 722 729 0
953 -722 729 0
-408 953 0
408 -953 0
960 -729 736 0
459 -974 0
-610 617 842 0
883 652 -659 0
-960 729 736 0
960 729 -736 0
-883 652 659 0
-911 -680 912 0
-680 687 912 0
883 -652 659 0
-238 883 0
-751 758 0
-960 -729 -736 0
961 -730 737 0
-982 -751 0
-624 631 856 0
-645 652 877 0
238 -883 0
-652 659 884 0
968 737 -744 0
-968 -737 -744 0
-750 757 982 0
-981 -750 982 0
750 -982 0
981 -982 0
-982 -751 -758 0
982 751 -758 0
34 -799 0
-34 799 0
799 -568 575 0
-799 568 575 0
799 568 -575 0
-799 -568 -575 0
-961 730 737 0
-800 576 0
800 -576 0
967 -968 0
799 -800 0
568 -800 0
-799 -568 800 0
-568 575 800 0
736 -968 0
-674 681 0
-905 -674 0
-639 646 0
-870 -639 0
-688 695 0
-919 -688 0
-876 -645 877 0
645 -877 0
-968 -737 0
-737 744 0
-841 -610 842 0
876 -877 0
-877 -646 -653 0
-863 -632 -639 0
-967 -736 968 0
-736 743 968 0
-659 666 891 0
877 646 -653 0
-632 639 0
-877 646 653 0
877 -646 653 0
-687 694 919 0
-918 -687 919 0
687 -919 0
-876 -645 -652 0
-673 680 905 0
918 -919 0
-716 723 0
-947 -716 0
876 645 -652 0
-876 645 652 0
-982 751 758 0
982 -751 758 0
-981 -750 -757 0
981 750 -757 0
-981 750 757 0
981 -750 757 0
876 -645 652 0
-221 876 0
51 -806 0
-51 806 0
806 -575 582 0
-806 575 582 0
806 575 -582 0
-806 -575 -582 0
807 -576 583 0
-807 576 583 0
807 576 -583 0
-807 -576 -583 0
806 -807 0
575 -807 0
-806 -575 807 0
-575 582 807 0
-904 -673 905 0
-153 848 0
-856 -625 -632 0
-702 709 0
-604 611 0
-835 -604 0
-807 -576 0
-576 583 0
-933 -702 0
-919 -688 -695 0
919 688 -695 0
221 -876 0
-919 688 695 0
-863 -632 0
-877 -646 0
-646 653 0
-618 625 0
919 -688 695 0
-918 -687 -694 0
-459 974 0
-701 708 933 0
-932 -701 933 0
701 -933 0
932 -933 0
-933 -702 -709 0
918 687 -694 0
-918 687 694 0
933 702 -709 0
-933 702 709 0
933 -702 709 0
-932 -701 -708 0
932 701 -708 0
-476 981 0
476 -981 0
862 -631 638 0
-638 645 870 0
-715 722 947 0
-946 -715 947 0
-932 701 708 0
932 -701 708 0
68 -813 0
-68 813 0
813 -582 589 0
-813 582 589 0
813 582 -589 0
-813 -582 -589 0
814 -583 590 0
-814 583 590 0
814 583 -590 0
-814 -583 -590 0
813 -814 0
582 -814 0
-813 -582 814 0
-582 589 814 0
-631 638 863 0
856 625 -632 0
-849 618 625 0
849 618 -625 0
-863 632 639 0
153 -848 0
-814 -583 0
-583 590 0
918 -687 694 0
-856 625 632 0
856 -625 632 0
-323 918 0
-681 688 0
-862 -631 863 0
-856 -625 0
-842 -611 0
323 -918 0
673 -905 0
904 -905 0
-729 736 961 0
-905 -674 -681 0
-960 -729 961 0
905 674 -681 0
-905 674 681 0
905 -674 681 0
-904 -673 -680 0
904 673 -680 0
-904 673 680 0
904 -673 680 0
-289 904 0
-869 -638 870 0
638 -870 0
-357 932 0
357 -932 0
-961 -730 0
-730 737 0
715 -947 0
946 -947 0
869 -870 0
-870 -639 -646 0
85 -820 0
-85 820 0
820 -589 596 0
-820 589 596 0
820 589 -596 0
-820 -589 -596 0
821 -590 597 0
-821 590 597 0
821 590 -597 0
-821 -590 -597 0
820 -821 0
589 -821 0
-820 -589 821 0
-589 596 821 0
-891 -660 0
-611 618 0
-848 617 624 0
631 -863 0
848 -617 624 0
-849 -618 -625 0
-821 -590 0
-590 597 0
-855 -624 -631 0
-625 632 0
610 -842 0
841 -842 0
855 624 -631 0
-855 624 631 0
848 -849 0
863 632 -639 0
289 -904 0
-743 750 975 0
-974 -743 975 0
967 -736 743 0
862 631 -638 0
-862 631 638 0
848 617 -624 0
-842 -611 -618 0
-967 736 743 0
870 639 -646 0
-870 639 646 0
967 736 -743 0
870 -639 646 0
-967 -736 -743 0
968 -737 744 0
-968 737 744 0
-947 -716 -723 0
947 716 -723 0
-869 -638 -645 0
391 -946 0
-391 946 0
869 638 -645 0
-869 638 645 0
869 -638 645 0
102 -827 0
-102 827 0
827 -596 603 0
-827 596 603 0
827 596 -603 0
-827 -596 -603 0
828 -597 604 0
-828 597 604 0
828 597 -604 0
-828 -597 -604 0
827 -828 0
596 -828 0
-827 -596 828 0
-596 603 828 0
-660 667 0
-848 -617 -624 0
842 611 -618 0
-842 611 618 0
849 -618 625 0
-975 744 751 0
-828 -597 0
-597 604 0
842 -611 618 0
-841 -610 -617 0
743 -975 0
974 -975 0
841 610 -617 0
-841 610 617 0
975 -744 751 0
841 -610 617 0
-975 -744 -751 0
975 744 -751 0
-855 -624 856 0
-617 624 849 0
624 -856 0
855 -856 0
-136 841 0
863 -632 639 0
-204 869 0
974 -743 750 0
-974 743 750 0
-653 660 0
974 743 -750 0
-974 -743 -750 0
-862 -631 -638 0
-848 -617 849 0
204 -869 0
617 -849 0
-884 -653 0
946 -715 722 0
-744 751 0
-975 -744 0
-946 715 722 0
-912 -681 0
119 -834 0
-119 834 0
834 -603 610 0
-834 603 610 0
834 603 -610 0
-834 -603 -610 0
835 -604 611 0
-835 604 611 0
835 604 -611 0
-835 -604 -611 0
834 -835 0
603 -835 0
-834 -603 835 0
-603 610 835 0
136 -841 0
